000 000 000 000 -99 000 000 000 -99 -99 -99 -99 000 -99 000 -99 -99 -99 000 000 000 001 001 001 001 000 000 -99 -99 -99 000
000 -99 000 000 000 000 000 000 000 -99 -99 -99 -99 000 000 000 -99 000 -99 000 000 000 000 002 001 000 000 -99 -99 -99 000
000 000 000 000 000 000 000 000 000 000 -99 -99 000 000 000 000 000 000 000 000 000 000 000 000 001 000 000 000 -99 -99 001
000 -99 000 000 000 000 000 000 000 000 -99 -99 000 000 000 000 000 000 000 000 000 000 000 000 000 000 000 000 -99 -99 001
000 000 000 000 000 000 000 000 000 000 -99 000 000 000 001 000 000 001 001 000 000 000 000 000 001 000 000 000 000 -99 001
000 000 000 000 000 000 000 000 000 000 000 000 000 000 001 000 000 000 001 000 000 000 001 001 001 002 001 -99 -99 -99 002
000 000 000 000 001 001 000 000 000 000 000 000 000 000 001 000 000 000 000 000 000 000 000 001 001 002 002 -99 002 002 004
000 000 000 001 001 000 000 000 000 000 000 000 000 000 001 000 000 000 000 000 000 000 000 001 002 004 004 002 002 002 003
000 000 000 000 001 000 000 000 000 000 000 000 000 000 000 000 000 000 -99 000 000 001 001 005 004 007 004 004 003 002 003
000 000 000 000 000 000 000 000 000 000 000 000 000 -99 000 000 000 000 000 000 000 001 003 006 006 006 007 005 005 005 004
000 000 000 000 000 000 000 000 000 000 000 000 000 -99 -99 000 000 000 000 000 000 001 004 007 012 005 008 006 008 006 002
002 000 000 000 000 000 000 000 000 000 000 000 000 -99 -99 000 000 000 000 000 000 001 004 007 011 002 002 005 007 006 002
004 000 000 000 000 000 000 000 000 000 000 000 000 -99 -99 000 000 000 000 000 000 000 004 006 013 007 003 005 010 005 003
001 000 000 000 000 000 000 000 000 000 000 000 000 -99 -99 -99 000 000 000 000 000 000 003 006 011 012 005 003 007 003 003
001 000 000 000 000 000 000 001 000 000 000 000 000 000 -99 000 000 000 000 000 001 000 002 004 006 013 005 002 002 002 002
001 001 000 000 000 000 000 000 000 000 000 000 000 000 000 000 000 000 000 000 000 000 001 004 005 005 003 001 001 001 001
000 000 000 000 000 000 000 000 000 000 000 000 000 000 000 000 000 000 000 000 000 000 000 000 002 003 002 001 001 001 001
000 000 001 000 000 000 000 000 000 000 000 000 000 000 000 000 000 000 000 -99 -99 000 000 000 001 002 002 002 001 001 001
000 001 001 001 000 000 -99 000 000 000 000 000 000 000 000 000 000 000 000 -99 -99 000 000 001 001 001 002 002 001 001 001
000 001 001 001 000 -99 000 000 000 000 000 000 000 000 000 -99 000 000 000 000 000 000 000 -99 001 001 002 002 001 001 001
000 000 001 000 000 -99 -99 000 000 000 000 000 000 000 -99 -99 000 000 000 000 000 000 000 -99 -99 001 001 -99 -99 -99 -99
000 000 000 000 000 000 000 000 000 000 000 000 000 000 000 000 000 000 -99 000 000 000 000 -99 -99 -99 -99 -99 -99 -99 -99
000 000 000 000 000 000 000 000 000 000 000 000 000 000 000 000 000 000 000 000 000 000 000 -99 -99 -99 -99 -99 -99 -99 -99
000 000 000 000 000 000 000 000 000 000 000 000 000 000 000 000 000 000 000 000 000 000 000 -99 -99 -99 -99 -99 -99 -99 000
000 000 000 000 000 000 000 000 000 000 000 000 000 000 000 000 000 000 000 000 000 000 000 -99 -99 -99 -99 -99 -99 -99 000
000 000 000 000 000 -99 000 000 000 000 000 -99 000 000 000 000 000 000 000 000 000 000 000 -99 -99 -99 -99 -99 -99 000 000
000 000 000 000 000 000 000 000 000 000 000 -99 -99 000 000 000 000 000 000 000 000 000 000 -99 -99 -99 -99 -99 -99 000 000
000 000 000 000 000 000 000 000 000 000 -99 -99 -99 -99 -99 000 000 000 000 000 000 000 000 -99 -99 -99 -99 -99 -99 -99 000
000 000 000 000 000 000 000 000 000 000 -99 -99 -99 000 000 000 000 000 000 000 000 000 -99 -99 -99 -99 -99 -99 -99 -99 -99
000 000 000 000 000 000 000 000 000 000 -99 -99 -99 -99 000 000 000 000 000 000 000 000 -99 -99 -99 -99 -99 -99 -99 -99 -99
000 000 000 000 000 000 000 000 000 000 -99 -99 -99 000 000 000 000 000 000 000 000 000 -99 -99 -99 -99 -99 -99 -99 -99 000
-99 000 000 000 000 000 000 000 000 -99 -99 -99 -99 000 -99 -99 000 000 000 -99 -99 -99 -99 -99 -99 -99 -99 -99 -99 -99 000
-99 000 000 000 000 000 000 000 000 -99 -99 -99 -99 000 000 -99 000 000 000 -99 -99 -99 -99 -99 -99 -99 -99 000 000 000 000
-99 000 000 000 000 000 000 000 000 000 -99 -99 -99 -99 000 000 000 000 000 000 -99 -99 -99 -99 000 000 000 000 000 000 000
-99 000 000 000 000 000 000 000 000 000 -99 -99 000 000 000 000 000 -99 000 000 000 -99 -99 000 000 000 000 000 000 000 000
000 000 000 000 000 000 000 000 000 000 -99 -99 000 000 000 000 000 000 000 000 000 000 000 000 000 000 000 000 000 000 000
000 000 -99 000 000 -99 -99 000 000 000 -99 -99 000 000 000 000 000 000 000 000 000 000 000 -99 000 000 000 000 000 000 000
000 000 000 000 000 -99 -99 000 000 000 -99 000 000 000 000 000 000 000 -99 000 000 000 -99 000 000 000 000 000 000 000 000
000 -99 000 000 -99 -99 -99 -99 -99 -99 -99 000 000 000 000 000 000 000 -99 000 000 000 000 000 000 000 000 000 000 000 -99
-99 000 000 -99 -99 -99 -99 -99 -99 -99 -99 000 000 000 000 000 000 000 000 -99 000 000 000 000 000 000 000 -99 000 000 -99
000 000 000 000 -99 -99 -99 -99 -99 -99 000 000 000 000 000 000 000 -99 -99 000 000 000 000 000 000 000 000 -99 -99 000 -99
000 000 -99 -99 -99 -99 -99 -99 -99 000 000 000 000 000 000 000 -99 000 -99 000 000 000 000 000 000 000 -99 -99 000 000 -99
000 000 -99 -99 -99 -99 -99 -99 -99 000 000 000 000 000 000 000 000 000 000 000 000 000 000 000 000 000 -99 -99 000 -99 -99
000 -99 -99 -99 -99 -99 -99 -99 -99 000 000 000 000 000 000 000 000 000 000 000 000 000 000 000 000 000 000 000 000 -99 000
000 -99 -99 -99 -99 -99 -99 -99 -99 000 000 000 000 -99 000 000 000 000 000 000 000 000 -99 000 000 -99 000 000 000 -99 000
000 -99 -99 -99 -99 -99 -99 -99 -99 000 000 000 000 -99 000 000 000 000 000 000 000 000 -99 000 000 000 000 000 -99 -99 000
000 -99 -99 -99 -99 -99 -99 -99 -99 000 -99 000 -99 000 -99 -99 -99 000 000 000 000 000 000 000 000 000 000 -99 -99 -99 000
-99 -99 -99 -99 -99 -99 -99 -99 -99 -99 -99 -99 -99 000 000 -99 -99 000 000 000 000 000 000 000 000 000 000 000 000 -99 -99
-99 -99 -99 -99 -99 -99 -99 -99 -99 000 -99 -99 -99 -99 000 -99 000 000 000 000 000 000 000 000 000 000 000 000 000 -99 -99
-99 -99 -99 -99 -99 -99 -99 -99 000 000 -99 -99 -99 -99 -99 -99 000 000 000 000 000 000 -99 -99 000 000 -99 000 -99 -99 -99
-99 -99 -99 -99 -99 -99 -99 -99 -99 -99 -99 -99 -99 -99 -99 -99 000 000 000 000 000 000 -99 -99 -99 -99 -99 000 000 000 -99
-99 -99 -99 -99 -99 -99 -99 -99 -99 -99 -99 -99 -99 -99 -99 -99 -99 000 000 000 000 -99 -99 -99 -99 -99 -99 000 000 000 000
-99 -99 -99 -99 -99 -99 -99 -99 -99 -99 -99 -99 -99 -99 -99 -99 -99 000 000 000 000 000 -99 -99 -99 -99 -99 000 000 000 000
-99 -99 -99 -99 -99 -99 -99 -99 -99 -99 -99 -99 -99 -99 -99 -99 000 000 000 000 000 -99 -99 -99 -99 -99 -99 000 000 000 000
-99 -99 -99 -99 -99 -99 -99 -99 -99 -99 -99 -99 -99 -99 -99 -99 -99 000 000 000 000 -99 -99 -99 -99 -99 -99 -99 000 000 000
